Al
        3.9688275000
   0.500000000000000   0.500000000000000   0.000000000000000
   0.000000000000000   0.500000000000000   0.500000000000000
   0.500000000000000   0.000000000000000   0.500000000000000
    1
 Direct
   0.000000000000000   0.000000000000000   0.000000000000000
