N Al
   1.0
     3.1136129993147241    0.0000000000000000    0.0000000000000000
    -1.5568064996573621    2.6964679549600103    0.0000000000000000
     0.0000000000000000    0.0000000000000000    4.9833948976520253
 N Al
   2   2
Direct
   0.6666666666666643  0.3333333333333357  0.8809912875108584
   0.3333333333333357  0.6666666666666643  0.3809912875108584
   0.6666666666666643  0.3333333333333357  0.4990087124891441
   0.3333333333333357  0.6666666666666643  0.9990087124891442
