 O Ti Sr                                
   1.00000000000000     
     3.8990467248405292    0.0000000000000000    0.0000000000000000
     0.0000000000000000    3.8990467248405292    0.0000000000000000
     0.0000000000000000    0.0000000000000000    3.8990467248405292
   O    Ti   Sr
     3     1     1
Direct
  0.0000000000000000  0.5000000000000000  0.0000000000000000
  0.0000000000000000  0.0000000000000000  0.5000000000000000
  0.5000000000000000  0.0000000000000000  0.0000000000000000
  0.0000000000000000  0.0000000000000000  0.0000000000000000
  0.5000000000000000  0.5000000000000000  0.5000000000000000
 
